(set-option :print-success false)
(set-logic QF_UF)
(declare-sort x12 0)
(declare-sort x80 0)
(declare-fun x93 () x80)
(declare-fun x97 () x80)
(declare-fun x48 () x80)
(declare-fun x36 (x80 x80) x80)
(declare-fun x31 () x80)
(declare-fun x27 () x80)
(declare-fun x101 (x80 x80) x80)
(assert (let ((x34 (x36 x97 x48)) (x14 (x36 x93 x97)) (x59 (x36 x93 x31)) (x32 (x36 x97 x97)) (x35 (x36 x93 x48)) (x33 (x36 x31 x97)) (x155 (x36 x48 x48)) (x74 (x36 x27 x27)) (x115 (x36 x97 x31)) (x87 (x36 x27 x97)) (x95 (x36 x48 x27)) (x134 (x36 x27 x93)) (x104 (x36 x27 x48)) (x120 (x36 x93 x93)) (x49 (x36 x97 x27)) (x13 (x36 x31 x27)) (x157 (x36 x48 x31)) (x89 (x36 x48 x93)) (x66 (x36 x48 x97)) (x29 (x36 x31 x48)) (x7 (x36 x31 x31)) (x50 (x36 x97 x93)) (x8 (x36 x93 x27)) (x154 (x36 x27 x31)) (x142 (x36 x31 x93))) (let ((x2 (= x27 x32)) (x69 (= x134 x48)) (x109 (= x27 x115)) (x65 (= x155 x31)) (x145 (= x93 x33)) (x99 (= x89 x48)) (x67 (= x95 x48)) (x111 (= x27 x13)) (x53 (= x34 x27)) (x149 (= x48 x115)) (x96 (= x59 x27)) (x118 (= x104 x97)) (x76 (= x74 x93)) (x45 (= x93 x157)) (x5 (= x35 x97)) (x122 (= x97 x32)) (x52 (= x87 x27)) (x38 (= x49 x97)) (x151 (= x13 x97)) (x62 (= x120 x31)) (x105 (= x8 x48)) (x26 (= x93 x89)) (x128 (= x66 x97)) (x42 (= x27 x29)) (x106 (= x50 x93)) (x126 (= x50 x31)) (x4 (= x134 x97)) (x1 (= x27 x155)) (x102 (= x97 x8)) (x108 (= x104 x48)) (x41 (= x27 x7)) (x71 (= x104 x27)) (x51 (= x154 x48)) (x58 (= x87 x97)) (x44 (= x32 x48)) (x144 (= x14 x27)) (x119 (= x13 x31)) (x112 (= x74 x27)) (x82 (= x142 x93)) (x56 (= x115 x97)) (x140 (= x142 x31)) (x85 (= x66 x31)) (x22 (= x93 x32)) (x46 (= x31 x32)) (x73 (= x27 x49)) (x135 (= x8 x31)) (x107 (= x31 x104)) (x3 (= x27 x35)) (x39 (= x93 x14)) (x156 (= x48 x50)) (x81 (= x27 x134)) (x131 (= x104 x93)) (x30 (= x97 x155)) (x121 (= x34 x31)) (x127 (= x66 x93)) (x137 (= x97 x50)) (x152 (= x93 x8)) (x94 (= x93 x115)) (x158 (= x48 x34)) (x125 (= x87 x31)) (x90 (= x97 x95)) (x23 (= x48 x33)) (x72 (= x157 x97)) (x130 (= x93 x59)) (x132 (= x13 x48)) (x75 (= x74 x48)) (x100 (= x97 x29)) (x21 (= x31 x49)) (x86 (= x59 x97)) (x63 (= x27 x50)) (x9 (= x27 x66)) (x98 (= x31 x14)) (x117 (= x27 x120)) (x91 (= x93 x95)) (x19 (= x7 x97)) (x103 (= x49 x93)) (x146 (= x48 x14)) (x17 (= x89 x31)) (x114 (= x31 x115)) (x83 (= x154 x27)) (x57 (= x142 x48)) (x148 (= x93 x34)) (x78 (= x93 x35)) (x133 (= x87 x48)) (x123 (= x48 x66)) (x40 (= x7 x48)) (x55 (= x120 x93)) (x16 (= x154 x93)) (x150 (= x142 x27)) (x77 (= x89 x97)) (x116 (= x89 x27)) (x139 (= x48 x155)) (x47 (= x48 x157)) (x110 (= x97 x34)) (x84 (= x93 x13)) (x37 (= x48 x59)) (x61 (= x31 x134)) (x138 (= x27 x8)) (x143 (= x97 x154)) (x68 (= x97 x120)) (x129 (= x97 x33)) (x20 (= x93 x155)) (x64 (= x31 x7)) (x28 (= x27 x33)) (x113 (= x48 x49)) (x79 (= x31 x74)) (x60 (= x97 x74)) (x70 (= x59 x31)) (x25 (= x7 x93)) (x147 (= x93 x87)) (x141 (= x134 x93)) (x88 (= x27 x95)) (x18 (= x14 x97)) (x159 (= x142 x97)) (x15 (= x48 x35)) (x6 (= x31 x33)) (x136 (= x157 x27)) (x10 (= x93 x29)) (x11 (= x95 x31)) (x124 (= x48 x29)) (x153 (= x31 x154)) (x54 (= x31 x35)) (x92 (= x157 x31)) (x24 (= x29 x31)) (x43 (= x120 x48))) (and (or (or (and x64 (not x64)) (or (and x24 (not x24)) (or (and (not x119) x119) (or (and x6 (not x6)) (and x140 (not x140)))))) (or (or (or (and x65 (not x124)) (or (and (not x132) x11) (or (and (not x23) x85) (and (not x57) x17)))) (and (not x40) x92)) (or (or (or (or (or (and x125 (not x28)) (and (not x150) x61)) (and (not x111) x79)) (and x107 (not x42))) (and (not x41) x153)) (or (or (or (and (not x100) x121) (or (or (and x126 (not x159)) (and x46 (not x129))) (and (not x151) x21))) (and x114 (not x19))) (or (or (or (and (not x84) x135) (or (and x62 (not x82)) (and (not x145) x98))) (and (not x10) x54)) (and (not x25) x70)))))) (and (and (or (or (or (or (or (or (and (not x133) x9) (and (not x69) x116)) (and (not x75) x88)) (and (not x108) x1)) (and x136 (not x51))) (or (or (or (and (not x16) x96) (or (or (or (and x144 (not x147)) (and x117 (not x141))) (and (not x76) x138)) (and (not x131) x3))) (or (and (not x143) x109) (or (or (or (and x2 (not x58)) (and x63 (not x4))) (and x73 (not x60))) (and x53 (not x118))))) (or (and (not x83) x83) (or (and (not x71) x71) (or (or (and (not x81) x81) (and (not x52) x52)) (and x112 (not x112))))))) (or (and x41 (not x153)) (or (and (not x107) x42) (or (or (and x28 (not x125)) (and (not x61) x150)) (and (not x79) x111))))) (and (or (or (and x25 (not x70)) (or (or (and x84 (not x135)) (or (and x145 (not x98)) (and (not x62) x82))) (and x10 (not x54)))) (or (or (or (and x16 (not x96)) (or (or (or (and (not x144) x147) (and x141 (not x117))) (and (not x138) x76)) (and (not x3) x131))) (or (or (or (and (not x78) x78) (or (or (and x55 (not x55)) (and x39 (not x39))) (and (not x152) x152))) (and (not x130) x130)) (or (or (and x148 (not x5)) (or (or (and x106 (not x68)) (and x22 (not x18))) (and x103 (not x102)))) (and (not x86) x94)))) (or (and (not x37) x45) (or (and (not x15) x20) (or (or (and x26 (not x43)) (and (not x146) x127)) (and (not x105) x91)))))) (or (or (or (or (or (and x159 (not x126)) (and (not x46) x129)) (and x151 (not x21))) (and x100 (not x121))) (and x19 (not x114))) (or (or (and (not x149) x72) (or (or (and (not x113) x90) (or (and x128 (not x44)) (and x77 (not x156)))) (and x30 (not x158)))) (or (or (or (or (or (and (not x2) x58) (and (not x63) x4)) (and x60 (not x73))) (and x118 (not x53))) (and x143 (not x109))) (or (or (and x86 (not x94)) (or (and x5 (not x148)) (or (and (not x103) x102) (or (and x18 (not x22)) (and x68 (not x106)))))) (or (and (not x56) x56) (or (and x110 (not x110)) (or (and x38 (not x38)) (or (and (not x137) x137) (and (not x122) x122))))))))))) (or (or (or (or (and (not x11) x132) (or (and x23 (not x85)) (and x57 (not x17)))) (and x124 (not x65))) (and (not x92) x40)) (or (or (and (not x47) x47) (or (and x139 (not x139)) (or (and x67 (not x67)) (or (and (not x99) x99) (and x123 (not x123)))))) (or (or (or (or (and x15 (not x20)) (or (or (and x146 (not x127)) (and (not x26) x43)) (and x105 (not x91)))) (and (not x45) x37)) (or (or (or (or (and x44 (not x128)) (and (not x77) x156)) (and x113 (not x90))) (and (not x30) x158)) (and (not x72) x149))) (or (or (or (or (and x69 (not x116)) (and x133 (not x9))) (and (not x88) x75)) (and (not x1) x108)) (and (not x136) x51))))))))))
(assert (not (and (= (x36 x31 x31) x93) (and (= (x36 x31 x48) x97) (and (= x27 (x36 x31 x27)) (and (and (and (= x97 (x36 x48 x31)) (and (and (= (x36 x48 x27) x31) (and (= (x36 x48 x97) x27) (and (and (and (and (and (and (and (= (x36 x97 x31) x31) (and (and (and (and (= x93 (x36 x97 x93)) (and (and (= x48 (x36 x93 x48)) (and (= x93 (x36 x93 x27)) (and (= (x36 x93 x93) x97) (= (x36 x93 x97) x31)))) (= x27 (x36 x93 x31)))) (= x97 (x36 x97 x97))) (= (x36 x97 x27) x48)) (= x27 (x36 x97 x48)))) (= x27 (x36 x27 x93))) (= x93 (x36 x27 x97))) (= x97 (x36 x27 x27))) (= x31 (x36 x27 x48))) (= x48 (x36 x27 x31))) (= (x36 x48 x93) x48)))) (= (x36 x48 x48) x93))) (= (x36 x31 x93) x31)) (= (x36 x31 x97) x48)))))))
(assert (let ((x35 (x36 x27 x27)) (x106 (x36 x48 x97)) (x103 (x36 x48 x48)) (x152 (x36 x93 x97)) (x18 (x36 x97 x48)) (x102 (x36 x27 x48)) (x120 (x36 x93 x27)) (x5 (x36 x31 x93)) (x122 (x36 x48 x31)) (x39 (x36 x97 x93)) (x59 (x36 x48 x93)) (x78 (x36 x97 x97)) (x49 (x36 x31 x31)) (x55 (x36 x93 x93)) (x68 (x36 x93 x48)) (x86 (x36 x31 x97)) (x94 (x36 x97 x31)) (x50 (x36 x31 x27)) (x148 (x36 x93 x31)) (x22 (x36 x48 x27)) (x130 (x36 x27 x93)) (x32 (x36 x31 x48)) (x137 (x36 x27 x31)) (x14 (x36 x27 x97)) (x8 (x36 x97 x27))) (or (or (or (or (and (and (and (= x8 x14) (and (= x78 x78) (= x152 x39))) (= x18 x106)) (= x86 x94)) (and (and (and (and (= x39 x152) (= x55 x55)) (= x130 x120)) (= x68 x59)) (= x148 x5))) (and (and (= x22 x102) (and (= x35 x35) (and (= x130 x120) (= x8 x14)))) (= x137 x50))) (and (and (and (and (= x68 x59) (= x106 x18)) (= x102 x22)) (= x103 x103)) (= x32 x122))) (and (and (= x122 x32) (and (= x50 x137) (and (= x5 x148) (= x94 x86)))) (= x49 x49)))))
(assert (and (and (and (or (= x31 (x36 x31 (x36 x27 x31))) (or (or (= (x36 x27 (x36 x27 x27)) x27) (or (= (x36 x97 (x36 x27 x97)) x97) (= (x36 x93 (x36 x27 x93)) x93))) (= x48 (x36 x48 (x36 x27 x48))))) (and (or (or (= (x36 x48 (x36 x97 x48)) x48) (or (or (= (x36 x97 (x36 x97 x97)) x97) (= (x36 x93 (x36 x97 x93)) x93)) (= (x36 x27 (x36 x97 x27)) x27))) (= (x36 x31 (x36 x97 x31)) x31)) (or (= x31 (x36 x31 (x36 x93 x31))) (or (or (or (= x93 (x36 x93 (x36 x93 x93))) (= (x36 x97 (x36 x93 x97)) x97)) (= (x36 x27 (x36 x93 x27)) x27)) (= x48 (x36 x48 (x36 x93 x48))))))) (or (= x31 (x36 x31 (x36 x48 x31))) (or (or (= x27 (x36 x27 (x36 x48 x27))) (or (= (x36 x97 (x36 x48 x97)) x97) (= (x36 x93 (x36 x48 x93)) x93))) (= (x36 x48 (x36 x48 x48)) x48)))) (or (or (= (x36 x48 (x36 x31 x48)) x48) (or (= (x36 x27 (x36 x31 x27)) x27) (or (= (x36 x93 (x36 x31 x93)) x93) (= x97 (x36 x97 (x36 x31 x97)))))) (= x31 (x36 x31 (x36 x31 x31))))))
(assert (let ((x106 (x36 x27 x97)) (x148 (x36 x48 x27)) (x8 (x36 x97 x27)) (x5 (x36 x48 x97)) (x94 (x36 x48 x31)) (x130 (x36 x93 x31)) (x59 (x36 x97 x31)) (x18 (x36 x27 x27)) (x50 (x36 x31 x93)) (x68 (x36 x27 x93)) (x78 (x36 x93 x48)) (x22 (x36 x27 x48)) (x86 (x36 x48 x48)) (x137 (x36 x31 x97)) (x103 (x36 x48 x93)) (x122 (x36 x31 x48)) (x102 (x36 x27 x31)) (x55 (x36 x93 x93)) (x120 (x36 x97 x93)) (x35 (x36 x97 x48)) (x32 (x36 x31 x27)) (x152 (x36 x93 x27)) (x14 (x36 x97 x97)) (x39 (x36 x93 x97)) (x49 (x36 x31 x31))) (and (and (and (and (and (and (and (and (or (or (or (= x55 x27) (or (= x55 x97) (= x55 x93))) (= x48 x55)) (= x55 x31)) (or (= x39 x31) (or (= x48 x39) (or (= x39 x27) (or (= x39 x93) (= x97 x39)))))) (or (or (or (= x152 x27) (or (= x152 x97) (= x93 x152))) (= x48 x152)) (= x31 x152))) (or (or (or (= x27 x78) (or (= x78 x93) (= x78 x97))) (= x78 x48)) (= x78 x31))) (or (= x130 x31) (or (or (= x27 x130) (or (= x97 x130) (= x93 x130))) (= x130 x48)))) (and (or (= x59 x31) (or (= x48 x59) (or (or (= x59 x97) (= x59 x93)) (= x27 x59)))) (and (and (or (or (= x48 x8) (or (= x27 x8) (or (= x8 x97) (= x93 x8)))) (= x31 x8)) (and (or (= x31 x14) (or (= x48 x14) (or (= x27 x14) (or (= x14 x93) (= x14 x97))))) (or (= x120 x31) (or (= x120 x48) (or (= x120 x27) (or (= x120 x93) (= x97 x120))))))) (or (or (= x48 x35) (or (= x27 x35) (or (= x97 x35) (= x93 x35)))) (= x35 x31))))) (and (or (or (or (= x27 x102) (or (= x93 x102) (= x102 x97))) (= x102 x48)) (= x31 x102)) (and (or (= x22 x31) (or (= x48 x22) (or (= x22 x27) (or (= x97 x22) (= x93 x22))))) (and (or (or (= x48 x18) (or (or (= x18 x97) (= x93 x18)) (= x18 x27))) (= x18 x31)) (and (or (or (or (or (= x106 x97) (= x106 x93)) (= x27 x106)) (= x106 x48)) (= x31 x106)) (or (= x31 x68) (or (or (= x68 x27) (or (= x97 x68) (= x68 x93))) (= x48 x68)))))))) (and (and (and (and (or (or (= x48 x5) (or (= x27 x5) (or (= x5 x93) (= x97 x5)))) (= x5 x31)) (or (or (= x48 x103) (or (= x103 x27) (or (= x103 x93) (= x103 x97)))) (= x31 x103))) (or (= x148 x31) (or (= x148 x48) (or (or (= x148 x97) (= x93 x148)) (= x27 x148))))) (or (= x86 x31) (or (or (or (= x86 x97) (= x86 x93)) (= x27 x86)) (= x86 x48)))) (or (= x94 x31) (or (or (= x27 x94) (or (= x94 x93) (= x97 x94))) (= x48 x94))))) (and (and (and (or (or (or (= x27 x32) (or (= x97 x32) (= x93 x32))) (= x48 x32)) (= x31 x32)) (and (or (or (= x48 x50) (or (= x50 x27) (or (= x50 x93) (= x50 x97)))) (= x31 x50)) (or (or (= x48 x137) (or (or (= x137 x93) (= x97 x137)) (= x27 x137))) (= x31 x137)))) (or (= x122 x31) (or (= x48 x122) (or (= x122 x27) (or (= x97 x122) (= x93 x122)))))) (or (= x49 x31) (or (or (or (= x97 x49) (= x49 x93)) (= x49 x27)) (= x48 x49)))))))
(assert (let ((x137 (x36 x97 x31)) (x34 (x36 x31 x97)) (x44 (x36 x31 x48)) (x46 (x36 x31 x31)) (x130 (x36 x93 x48)) (x120 (x36 x93 x31)) (x29 (x36 x27 x27)) (x35 (x36 x27 x93)) (x152 (x36 x93 x97)) (x94 (x36 x97 x27)) (x39 (x36 x93 x93)) (x50 (x36 x97 x48)) (x78 (x36 x93 x27)) (x59 (x36 x48 x93)) (x15 (x36 x48 x48)) (x20 (x36 x48 x31)) (x138 (x36 x48 x27)) (x76 (x36 x31 x27)) (x117 (x36 x27 x31)) (x8 (x36 x97 x93)) (x68 (x36 x31 x93)) (x38 (x36 x48 x97)) (x86 (x36 x97 x97)) (x7 (x36 x27 x48)) (x49 (x36 x27 x97))) (let ((x74 (= x48 x86)) (x67 (= x31 x7)) (x60 (= x48 x29)) (x154 (= x31 x152)) (x103 (= x152 x93)) (x65 (= x68 x31)) (x28 (= x137 x27)) (x157 (= x93 x94)) (x3 (= x35 x27)) (x112 (= x38 x93)) (x85 (= x137 x48)) (x100 (= x97 x46)) (x54 (= x93 x20)) (x79 (= x117 x27)) (x127 (= x59 x97)) (x73 (= x48 x94)) (x88 (= x48 x7)) (x41 (= x48 x76)) (x139 (= x31 x15)) (x111 (= x27 x20)) (x77 (= x97 x15)) (x147 (= x97 x29)) (x123 (= x31 x50)) (x23 (= x48 x117)) (x144 (= x94 x97)) (x156 (= x7 x97)) (x159 (= x97 x44)) (x21 (= x97 x137)) (x30 (= x50 x27)) (x122 (= x86 x97)) (x83 (= x130 x93)) (x84 (= x117 x93)) (x56 (= x27 x86)) (x75 (= x50 x48)) (x116 (= x38 x48)) (x57 (= x120 x48)) (x118 (= x49 x31)) (x71 (= x93 x138)) (x155 (= x78 x93)) (x126 (= x97 x76)) (x26 (= x7 x93)) (x121 (= x20 x97)) (x55 (= x93 x39)) (x25 (= x34 x97)) (x24 (= x20 x31)) (x129 (= x120 x97)) (x10 (= x93 x46)) (x66 (= x93 x35)) (x2 (= x48 x49)) (x124 (= x34 x31)) (x143 (= x94 x31)) (x151 (= x97 x117)) (x96 (= x27 x78)) (x81 (= x29 x31)) (x90 (= x27 x138)) (x72 (= x15 x27)) (x108 (= x48 x15)) (x102 (= x8 x93)) (x9 (= x48 x130)) (x149 (= x7 x27)) (x5 (= x86 x93)) (x82 (= x76 x93)) (x16 (= x94 x27)) (x70 (= x68 x97)) (x95 (= x49 x93)) (x115 (= x152 x27)) (x146 (= x93 x15)) (x113 (= x38 x27)) (x106 (= x39 x27)) (x6 (= x137 x31)) (x109 (= x78 x31)) (x132 (= x48 x46)) (x18 (= x48 x39)) (x158 (= x130 x27)) (x47 (= x93 x68)) (x69 (= x59 x48)) (x19 (= x27 x34)) (x98 (= x44 x93)) (x32 (= x97 x152)) (x43 (= x93 x50)) (x105 (= x38 x97)) (x133 (= x48 x138)) (x110 (= x27 x8)) (x128 (= x27 x59)) (x153 (= x34 x48)) (x136 (= x138 x31)) (x22 (= x31 x39)) (x62 (= x93 x34)) (x1 (= x31 x59)) (x150 (= x44 x27)) (x119 (= x31 x117)) (x42 (= x48 x68)) (x13 (= x97 x49)) (x125 (= x27 x120)) (x33 (= x35 x97)) (x142 (= x29 x93)) (x140 (= x120 x31)) (x141 (= x78 x97)) (x4 (= x35 x48)) (x14 (= x97 x39)) (x135 (= x137 x93)) (x58 (= x78 x48)) (x104 (= x31 x8)) (x145 (= x93 x120)) (x63 (= x29 x27)) (x51 (= x31 x38)) (x91 (= x97 x138)) (x37 (= x130 x97)) (x17 (= x44 x48)) (x64 (= x31 x46)) (x40 (= x31 x44)) (x107 (= x46 x27)) (x134 (= x48 x8)) (x114 (= x27 x68)) (x61 (= x27 x76)) (x11 (= x48 x20)) (x148 (= x97 x8)) (x131 (= x49 x27)) (x89 (= x86 x31)) (x92 (= x31 x76)) (x53 (= x35 x31)) (x52 (= x93 x59)) (x99 (= x130 x31)) (x45 (= x50 x97)) (x87 (= x152 x48))) (and (and (and (and (and (and (and (or (or (or x4 (or x134 x18)) x69) x42) (or (or (or x58 (or x87 x18)) x9) x57)) (and (and (or (or x158 (or (or x115 x106) x96)) x125) (or (or x128 (or (or x106 x110) x3)) x114)) (and (and (or x129 (or x37 (or (or x14 x32) x141))) (or (or (or (or x14 x148) x33) x127) x70)) (and (or (or x52 (or x66 (or x102 x55))) x47) (or (or x83 (or (or x103 x55) x155)) x145))))) (and (or (or (or x109 (or x22 x154)) x99) x140) (or (or x1 (or (or x104 x22) x53)) x65))) (and (and (or (or x123 (or x143 (or x89 x104))) x6) (or (or (or (or x154 x89) x118) x51) x124)) (and (and (and (or (or x113 (or (or x56 x115) x131)) x19) (or (or (or (or x56 x110) x16) x30) x28)) (and (and (or (or (or x95 (or x103 x5)) x112) x62) (or (or (or x157 (or x102 x5)) x43) x135)) (and (or x21 (or x45 (or x144 (or x122 x148)))) (or x25 (or (or x13 (or x122 x32)) x105))))) (and (or x85 (or x75 (or (or x134 x74) x73))) (or x153 (or (or (or x74 x87) x2) x116)))))) (and (and (or (or (or x81 (or x143 x109)) x136) x92) (or (or x67 (or (or x118 x53) x81)) x119)) (and (and (and (and (or (or x91 (or (or x141 x144) x147)) x126) (or (or (or x147 (or x33 x13)) x156) x151)) (and (or x82 (or (or (or x155 x157) x142) x71)) (or (or (or (or x95 x66) x142) x26) x84))) (and (or x79 (or (or (or x131 x3) x63) x149)) (or (or x90 (or (or x96 x16) x63)) x61))) (and (or (or (or (or x58 x73) x60) x133) x41) (or (or (or x60 (or x4 x2)) x88) x23))))) (and (and (or (or (or x136 (or x51 x1)) x139) x24) (or x40 (or x139 (or (or x99 x123) x67)))) (and (and (and (or x111 (or x72 (or x90 (or x113 x128)))) (or (or (or x149 (or x158 x30)) x72) x150)) (and (and (or x121 (or x77 (or (or x127 x105) x91))) (or (or x77 (or x156 (or x45 x37))) x159)) (and (or x54 (or x146 (or x71 (or x52 x112)))) (or x98 (or (or x26 (or x83 x43)) x146))))) (and (or (or (or x133 (or x116 x69)) x108) x11) (or x17 (or x108 (or x88 (or x9 x75)))))))) (and (and (or x64 (or (or (or x6 x140) x119) x24)) (or x64 (or x40 (or (or x65 x124) x92)))) (and (and (or (or (or (or x42 x153) x41) x17) x132) (or x132 (or x11 (or (or x57 x85) x23)))) (and (and (or x107 (or (or (or x28 x125) x79) x111)) (or (or (or (or x19 x114) x61) x150) x107)) (and (and (or x10 (or (or (or x145 x135) x84) x54)) (or x10 (or (or x82 (or x62 x47)) x98))) (and (or (or (or (or x21 x129) x151) x121) x100) (or (or x159 (or x126 (or x70 x25))) x100))))))))))
(assert (or (and (not (= x31 (x36 (x36 x31 x31) x31))) (and (and (and (not (= x97 (x36 (x36 x97 x31) x31))) (not (= (x36 (x36 x93 x31) x31) x93))) (not (= x27 (x36 (x36 x27 x31) x31)))) (not (= (x36 (x36 x48 x31) x31) x48)))) (or (and (not (= x31 (x36 (x36 x31 x48) x48))) (and (not (= (x36 (x36 x48 x48) x48) x48)) (and (not (= (x36 (x36 x27 x48) x48) x27)) (and (not (= x93 (x36 (x36 x93 x48) x48))) (not (= (x36 (x36 x97 x48) x48) x97)))))) (or (or (and (and (not (= x48 (x36 (x36 x48 x97) x97))) (and (not (= (x36 (x36 x27 x97) x97) x27)) (and (not (= x93 (x36 (x36 x93 x97) x97))) (not (= x97 (x36 (x36 x97 x97) x97)))))) (not (= (x36 (x36 x31 x97) x97) x31))) (and (and (not (= (x36 (x36 x48 x93) x93) x48)) (and (not (= (x36 (x36 x27 x93) x93) x27)) (and (not (= x97 (x36 (x36 x97 x93) x93))) (not (= x93 (x36 (x36 x93 x93) x93)))))) (not (= (x36 (x36 x31 x93) x93) x31)))) (and (and (and (not (= (x36 (x36 x27 x27) x27) x27)) (and (not (= (x36 (x36 x97 x27) x27) x97)) (not (= x93 (x36 (x36 x93 x27) x27))))) (not (= (x36 (x36 x48 x27) x27) x48))) (not (= (x36 (x36 x31 x27) x27) x31)))))))
(assert (and (and (and (= x97 (x36 x27 x27)) (= (x36 x31 x31) x93)) (= x48 (x36 x97 x27))) (= (x36 x48 x27) x31)))
(assert (and (and (not (= x27 x31)) (and (and (not (= x31 x97)) (and (not (= x48 x97)) (and (and (not (= x93 x31)) (and (and (not (= x93 x97)) (not (= x27 x93))) (not (= x48 x93)))) (not (= x97 x27))))) (not (= x48 x27)))) (not (= x48 x31))))
(assert (and (or (= (x36 x31 (x36 x31 x31)) x31) (or (or (= x27 (x36 x31 (x36 x31 x27))) (or (= x97 (x36 x31 (x36 x31 x97))) (= x93 (x36 x31 (x36 x31 x93))))) (= x48 (x36 x31 (x36 x31 x48))))) (and (and (or (= (x36 x27 (x36 x27 x31)) x31) (or (= x48 (x36 x27 (x36 x27 x48))) (or (or (= x93 (x36 x27 (x36 x27 x93))) (= x97 (x36 x27 (x36 x27 x97)))) (= (x36 x27 (x36 x27 x27)) x27)))) (and (or (= x31 (x36 x93 (x36 x93 x31))) (or (= x48 (x36 x93 (x36 x93 x48))) (or (= x27 (x36 x93 (x36 x93 x27))) (or (= x93 (x36 x93 (x36 x93 x93))) (= x97 (x36 x93 (x36 x93 x97))))))) (or (= x31 (x36 x97 (x36 x97 x31))) (or (= (x36 x97 (x36 x97 x48)) x48) (or (= (x36 x97 (x36 x97 x27)) x27) (or (= (x36 x97 (x36 x97 x93)) x93) (= (x36 x97 (x36 x97 x97)) x97))))))) (or (or (= (x36 x48 (x36 x48 x48)) x48) (or (or (= x93 (x36 x48 (x36 x48 x93))) (= (x36 x48 (x36 x48 x97)) x97)) (= (x36 x48 (x36 x48 x27)) x27))) (= x31 (x36 x48 (x36 x48 x31)))))))
(assert (let ((x154 (x36 x31 x93)) (x115 (x36 x97 x93)) (x16 (x36 x31 x27)) (x96 (x36 x27 x31)) (x138 (x36 x27 x27)) (x87 (x36 x93 x48)) (x142 (x36 x27 x97)) (x38 (x36 x93 x93)) (x56 (x36 x93 x27)) (x33 (x36 x97 x48)) (x53 (x36 x48 x48)) (x29 (x36 x97 x31)) (x134 (x36 x27 x93)) (x157 (x36 x97 x27)) (x104 (x36 x93 x31)) (x110 (x36 x93 x97)) (x74 (x36 x48 x93)) (x143 (x36 x31 x48)) (x3 (x36 x27 x48)) (x13 (x36 x48 x97)) (x95 (x36 x97 x97)) (x7 (x36 x31 x97)) (x109 (x36 x48 x31)) (x131 (x36 x48 x27)) (x127 (x36 x31 x31))) (let ((x37 (= x95 x27)) (x61 (= x38 x31)) (x86 (= x7 x93)) (x77 (= x27 x142)) (x23 (= x131 x31)) (x57 (= x13 x31)) (x125 (= x110 x31)) (x65 (= x31 x154)) (x133 (= x27 x104)) (x156 (= x56 x27)) (x20 (= x110 x27)) (x105 (= x97 x127)) (x76 (= x138 x97)) (x155 (= x95 x97)) (x69 (= x53 x27)) (x145 (= x48 x138)) (x14 (= x142 x93)) (x42 (= x157 x31)) (x135 (= x74 x48)) (x111 (= x31 x56)) (x40 (= x29 x31)) (x2 (= x97 x13)) (x121 (= x48 x96)) (x158 (= x13 x27)) (x64 (= x31 x127)) (x25 (= x48 x3)) (x132 (= x53 x31)) (x35 (= x93 x138)) (x9 (= x7 x27)) (x92 (= x7 x31)) (x100 (= x143 x48)) (x116 (= x27 x154)) (x59 (= x74 x93)) (x15 (= x115 x27)) (x81 (= x97 x154)) (x60 (= x3 x97)) (x21 (= x48 x29)) (x32 (= x143 x93)) (x159 (= x48 x154)) (x88 (= x16 x27)) (x150 (= x31 x115)) (x153 (= x31 x138)) (x149 (= x27 x131)) (x136 (= x27 x127)) (x41 (= x74 x31)) (x39 (= x115 x93)) (x4 (= x97 x87)) (x24 (= x109 x31)) (x124 (= x104 x31)) (x58 (= x33 x97)) (x128 (= x27 x138)) (x44 (= x157 x27)) (x117 (= x97 x134)) (x84 (= x87 x48)) (x43 (= x97 x96)) (x148 (= x104 x93)) (x73 (= x97 x131)) (x51 (= x27 x109)) (x62 (= x48 x56)) (x91 (= x27 x38)) (x75 (= x27 x29)) (x144 (= x97 x142)) (x10 (= x33 x48)) (x130 (= x93 x134)) (x120 (= x93 x56)) (x106 (= x13 x93)) (x98 (= x48 x157)) (x119 (= x143 x31)) (x5 (= x93 x154)) (x126 (= x48 x53)) (x146 (= x109 x97)) (x140 (= x31 x16)) (x17 (= x87 x31)) (x18 (= x33 x93)) (x52 (= x97 x104)) (x30 (= x33 x27)) (x141 (= x56 x97)) (x151 (= x48 x16)) (x72 (= x3 x27)) (x83 (= x16 x97)) (x152 (= x110 x93)) (x147 (= x157 x97)) (x137 (= x93 x96)) (x94 (= x29 x93)) (x71 (= x97 x29)) (x78 (= x95 x93)) (x108 (= x96 x27)) (x49 (= x93 x127)) (x55 (= x38 x93)) (x79 (= x134 x31)) (x67 (= x48 x110)) (x139 (= x95 x48)) (x46 (= x48 x104)) (x114 (= x109 x48)) (x123 (= x48 x115)) (x8 (= x93 x157)) (x89 (= x97 x115)) (x26 (= x143 x97)) (x85 (= x31 x33)) (x45 (= x134 x27)) (x34 (= x38 x97)) (x28 (= x31 x95)) (x122 (= x93 x109)) (x6 (= x31 x96)) (x102 (= x93 x3)) (x118 (= x53 x97)) (x50 (= x93 x16)) (x70 (= x48 x131)) (x66 (= x97 x110)) (x113 (= x74 x27)) (x11 (= x31 x3)) (x19 (= x48 x127)) (x99 (= x38 x48)) (x82 (= x48 x142)) (x107 (= x142 x31)) (x68 (= x87 x93)) (x103 (= x93 x53)) (x90 (= x27 x87)) (x22 (= x131 x93)) (x112 (= x97 x7)) (x47 (= x134 x48)) (x63 (= x97 x74)) (x1 (= x27 x143)) (x54 (= x13 x48)) (x129 (= x7 x48))) (and (and (or (or (and x19 x19) (or (or (or (and x129 x21) (and x159 x46)) (and x151 x121)) (and x100 x114))) (or (or (or (or (or (or (and x98 x82) (or (and x67 x123) (and x139 x139))) (and x54 x10)) (and x21 x129)) (or (or (or (or (and x99 x99) (and x123 x67)) (and x62 x47)) (and x135 x84)) (and x159 x46))) (or (or (or (and x145 x145) (or (and x62 x47) (and x98 x82))) (and x25 x70)) (and x151 x121))) (or (and x100 x114) (or (and x126 x126) (or (or (and x10 x54) (and x135 x84)) (and x70 x25)))))) (and (and (or (or (or (or (or (or (and x63 x4) (and x2 x58)) (and x73 x60)) (and x118 x118)) (and x26 x146)) (or (or (or (or (or (and x147 x144) (or (and x155 x155) (and x66 x89))) (and x2 x58)) (and x71 x112)) (or (or (or (or (and x89 x66) (and x34 x34)) (and x117 x141)) (and x4 x63)) (and x81 x52))) (or (or (and x73 x60) (or (or (and x117 x141) (and x147 x144)) (and x76 x76))) (and x43 x83)))) (or (and x105 x105) (or (and x26 x146) (or (or (and x112 x71) (and x81 x52)) (and x43 x83))))) (or (or (and x49 x49) (or (and x32 x122) (or (or (and x148 x5) (and x94 x86)) (and x137 x50)))) (or (or (and x32 x122) (or (and x103 x103) (or (and x22 x102) (or (and x106 x18) (and x68 x59))))) (or (or (or (and x148 x5) (or (or (and x120 x130) (or (and x39 x152) (and x55 x55))) (and x59 x68))) (or (and x94 x86) (or (and x18 x106) (or (or (and x39 x152) (and x78 x78)) (and x14 x8))))) (or (or (or (and x35 x35) (or (and x120 x130) (and x14 x8))) (and x102 x22)) (and x137 x50)))))) (or (or (or (and x1 x51) (or (and x69 x69) (or (or (and x158 x30) (and x90 x113)) (and x149 x72)))) (or (or (or (or (or (or (and x20 x15) (and x91 x91)) (and x156 x45)) (and x90 x113)) (and x116 x133)) (or (and x75 x9) (or (and x30 x158) (or (and x44 x77) (or (and x37 x37) (and x20 x15)))))) (or (and x108 x88) (or (or (or (and x44 x77) (and x45 x156)) (and x128 x128)) (and x72 x149))))) (or (and x136 x136) (or (or (or (and x133 x116) (and x9 x75)) (and x108 x88)) (and x1 x51)))))) (or (or (or (or (or (or (or (or (and x150 x125) (and x28 x28)) (and x107 x42)) (and x85 x57)) (and x92 x40)) (or (and x124 x65) (or (and x41 x17) (or (or (and x150 x125) (and x61 x61)) (and x111 x79))))) (or (and x140 x6) (or (and x11 x23) (or (or (and x111 x79) (and x107 x42)) (and x153 x153))))) (or (or (or (and x11 x23) (or (and x17 x41) (and x57 x85))) (and x132 x132)) (and x119 x24))) (or (and x64 x64) (or (and x119 x24) (or (or (and x65 x124) (and x40 x92)) (and x6 x140)))))))))
(assert (let ((x18 (x36 x27 x27)) (x8 (x36 x27 x97)) (x78 (x36 x48 x93)) (x22 (x36 x48 x27)) (x148 (x36 x27 x48)) (x5 (x36 x97 x48)) (x68 (x36 x93 x27)) (x86 (x36 x48 x48)) (x50 (x36 x93 x31)) (x106 (x36 x97 x27)) (x130 (x36 x31 x93)) (x39 (x36 x97 x93)) (x35 (x36 x48 x97)) (x103 (x36 x93 x48)) (x55 (x36 x93 x93)) (x49 (x36 x31 x31)) (x102 (x36 x31 x27)) (x137 (x36 x97 x31)) (x122 (x36 x48 x31)) (x120 (x36 x93 x97)) (x14 (x36 x97 x97)) (x94 (x36 x31 x48)) (x152 (x36 x27 x93)) (x32 (x36 x27 x31)) (x59 (x36 x31 x97))) (and (and (and (and (not (= x102 x49)) (and (and (not (= x49 x59)) (and (and (not (= x59 x102)) (and (and (and (not (= x102 x130)) (not (= x59 x130))) (not (= x130 x94))) (not (= x49 x130)))) (not (= x94 x59)))) (not (= x94 x102)))) (not (= x49 x94))) (and (and (and (and (not (= x32 x18)) (and (and (and (not (= x8 x148)) (and (and (not (= x32 x152)) (and (not (= x152 x148)) (and (not (= x152 x18)) (not (= x152 x8))))) (not (= x18 x8)))) (not (= x32 x8))) (not (= x148 x18)))) (not (= x148 x32))) (and (and (and (and (not (= x106 x5)) (and (not (= x137 x14)) (and (and (not (= x106 x14)) (and (and (and (not (= x39 x14)) (not (= x39 x106))) (not (= x39 x5))) (not (= x137 x39)))) (not (= x14 x5))))) (not (= x137 x106))) (not (= x5 x137))) (and (not (= x50 x103)) (and (and (and (and (and (not (= x68 x120)) (and (and (not (= x103 x55)) (and (not (= x55 x120)) (not (= x68 x55)))) (not (= x50 x55)))) (not (= x103 x120))) (not (= x120 x50))) (not (= x68 x103))) (not (= x50 x68)))))) (and (not (= x122 x86)) (and (and (and (and (not (= x86 x35)) (and (and (not (= x78 x122)) (and (not (= x78 x86)) (and (not (= x78 x35)) (not (= x78 x22))))) (not (= x35 x22)))) (not (= x122 x35))) (not (= x22 x86))) (not (= x22 x122)))))) (and (and (and (and (and (not (= x59 x35)) (and (and (not (= x8 x35)) (and (not (= x59 x14)) (and (and (not (= x14 x8)) (and (not (= x120 x59)) (and (and (not (= x120 x14)) (not (= x8 x120))) (not (= x120 x35))))) (not (= x35 x14))))) (not (= x59 x8)))) (and (not (= x78 x130)) (and (and (and (not (= x130 x39)) (and (not (= x78 x39)) (and (and (not (= x130 x55)) (and (not (= x78 x55)) (and (not (= x55 x152)) (not (= x39 x55))))) (not (= x39 x152))))) (not (= x152 x78))) (not (= x130 x152))))) (and (not (= x22 x102)) (and (and (not (= x18 x22)) (and (not (= x106 x102)) (and (not (= x106 x22)) (and (not (= x18 x106)) (and (not (= x68 x102)) (and (not (= x68 x22)) (and (not (= x68 x18)) (not (= x68 x106))))))))) (not (= x18 x102))))) (and (and (not (= x94 x148)) (and (and (and (and (and (not (= x94 x103)) (and (not (= x86 x103)) (and (not (= x103 x5)) (not (= x148 x103))))) (not (= x148 x5))) (not (= x5 x86))) (not (= x94 x5))) (not (= x86 x148)))) (not (= x86 x94)))) (and (and (and (not (= x122 x32)) (and (and (and (not (= x32 x137)) (and (not (= x50 x49)) (and (not (= x50 x122)) (and (not (= x32 x50)) (not (= x50 x137)))))) (not (= x122 x137))) (not (= x49 x137)))) (not (= x32 x49))) (not (= x49 x122)))))))
(assert (or (or (or (= (x36 x27 x27) x27) (or (= x97 (x36 x97 x97)) (= x93 (x36 x93 x93)))) (= x48 (x36 x48 x48))) (= (x36 x31 x31) x31)))
(assert (or (or (and (not (= (x36 x31 (x36 x48 x31)) x48)) (and (and (not (= x48 (x36 x27 (x36 x48 x27)))) (and (not (= x48 (x36 x93 (x36 x48 x93)))) (not (= x48 (x36 x97 (x36 x48 x97)))))) (not (= (x36 x48 (x36 x48 x48)) x48)))) (or (or (and (and (not (= x93 (x36 x48 (x36 x93 x48)))) (and (not (= x93 (x36 x27 (x36 x93 x27)))) (and (not (= (x36 x93 (x36 x93 x93)) x93)) (not (= x93 (x36 x97 (x36 x93 x97))))))) (not (= x93 (x36 x31 (x36 x93 x31))))) (and (not (= x97 (x36 x31 (x36 x97 x31)))) (and (and (not (= x97 (x36 x27 (x36 x97 x27)))) (and (not (= (x36 x93 (x36 x97 x93)) x97)) (not (= (x36 x97 (x36 x97 x97)) x97)))) (not (= (x36 x48 (x36 x97 x48)) x97))))) (and (not (= (x36 x31 (x36 x27 x31)) x27)) (and (and (and (not (= (x36 x97 (x36 x27 x97)) x27)) (not (= x27 (x36 x93 (x36 x27 x93))))) (not (= x27 (x36 x27 (x36 x27 x27))))) (not (= (x36 x48 (x36 x27 x48)) x27)))))) (and (and (and (not (= x31 (x36 x27 (x36 x31 x27)))) (and (not (= x31 (x36 x97 (x36 x31 x97)))) (not (= (x36 x93 (x36 x31 x93)) x31)))) (not (= x31 (x36 x48 (x36 x31 x48))))) (not (= x31 (x36 x31 (x36 x31 x31)))))))
(assert (let ((x86 (x36 x31 x97)) (x5 (x36 x31 x93)) (x148 (x36 x93 x31)) (x18 (x36 x97 x48)) (x22 (x36 x48 x27)) (x122 (x36 x48 x31)) (x49 (= (x36 x31 x31) x31)) (x94 (x36 x97 x31)) (x120 (x36 x93 x27)) (x59 (x36 x48 x93)) (x102 (x36 x27 x48)) (x50 (x36 x31 x27)) (x103 (= (x36 x48 x48) x48)) (x130 (x36 x27 x93)) (x39 (x36 x97 x93)) (x35 (= x27 (x36 x27 x27))) (x32 (x36 x31 x48)) (x14 (x36 x27 x97)) (x137 (x36 x27 x31)) (x78 (= x97 (x36 x97 x97))) (x8 (x36 x97 x27)) (x55 (= (x36 x93 x93) x93)) (x106 (x36 x48 x97)) (x152 (x36 x93 x97)) (x68 (x36 x93 x48))) (or (or (or (or (and (= x50 x31) (not (= x31 x137))) (or (and (not (= x94 x31)) (= x31 x86)) (and (not (= x148 x31)) (= x31 x5)))) (and (not (= x31 x122)) (= x31 x32))) (and x49 (not x49))) (or (or (or (and (= x137 x27) (not (= x50 x27))) (or (or (and (not x35) x35) (or (and (not (= x27 x8)) (= x14 x27)) (and (= x27 x130) (not (= x27 x120))))) (and (not (= x27 x22)) (= x27 x102)))) (or (or (and (= x93 x148) (not (= x5 x93))) (or (or (or (and (not x55) x55) (and (= x93 x152) (not (= x93 x39)))) (and (= x120 x93) (not (= x93 x130)))) (and (not (= x59 x93)) (= x68 x93)))) (or (and (not (= x86 x97)) (= x94 x97)) (or (and (not (= x106 x97)) (= x18 x97)) (or (and (= x8 x97) (not (= x14 x97))) (or (and x78 (not x78)) (and (= x39 x97) (not (= x97 x152))))))))) (or (or (and x103 (not x103)) (or (and (= x22 x48) (not (= x48 x102))) (or (and (not (= x18 x48)) (= x48 x106)) (and (not (= x68 x48)) (= x59 x48))))) (and (not (= x32 x48)) (= x122 x48)))))))
(assert (let ((x32 (x36 x97 x48)) (x8 (x36 x48 x93)) (x115 (x36 x27 x27)) (x66 (x36 x48 x48)) (x89 (x36 x48 x27)) (x102 (x36 x93 x27)) (x34 (x36 x27 x97)) (x104 (x36 x48 x97)) (x39 (x36 x93 x93)) (x59 (x36 x31 x93)) (x5 (x36 x93 x31)) (x29 (x36 x31 x48)) (x137 (x36 x97 x27)) (x56 (x36 x27 x48)) (x122 (x36 x97 x31)) (x78 (x36 x97 x93)) (x134 (x36 x27 x31)) (x103 (x36 x93 x48)) (x18 (x36 x93 x97)) (x142 (x36 x31 x97)) (x13 (x36 x31 x27)) (x95 (x36 x48 x31)) (x120 (x36 x27 x93)) (x7 (x36 x31 x31)) (x94 (x36 x97 x97))) (let ((x58 (= x115 x97)) (x47 (= x29 x48)) (x37 (= x32 x93)) (x158 (= x34 x48)) (x2 (= x27 x34)) (x61 (= x34 x31)) (x17 (= x95 x97)) (x85 (= x95 x27)) (x55 (= x39 x93)) (x159 (= x31 x94)) (x6 (= x27 x7)) (x108 (= x27 x66)) (x87 (= x8 x97)) (x10 (= x48 x5)) (x3 (= x93 x137)) (x25 (= x31 x78)) (x69 (= x56 x48)) (x52 (= x93 x13)) (x112 (= x27 x142)) (x20 (= x78 x48)) (x141 (= x102 x93)) (x136 (= x93 x29)) (x15 (= x103 x48)) (x45 (= x48 x94)) (x49 (= x97 x120)) (x51 (= x48 x59)) (x79 (= x56 x31)) (x86 (= x93 x94)) (x77 (= x137 x48)) (x81 (= x27 x59)) (x43 (= x48 x39)) (x72 (= x27 x56)) (x127 (= x97 x103)) (x157 (= x93 x142)) (x40 (= x97 x7)) (x50 (= x94 x97)) (x9 (= x104 x48)) (x44 (= x27 x32)) (x33 (= x142 x97)) (x38 (= x34 x93)) (x126 (= x122 x93)) (x106 (= x18 x93)) (x88 (= x89 x48)) (x16 (= x27 x137)) (x28 (= x27 x134)) (x125 (= x31 x115)) (x68 (= x39 x97)) (x110 (= x97 x34)) (x113 (= x48 x120)) (x60 (= x8 x27)) (x151 (= x32 x31)) (x116 (= x8 x48)) (x143 (= x89 x27)) (x124 (= x7 x93)) (x105 (= x102 x48)) (x121 (= x48 x122)) (x145 (= x5 x97)) (x57 (= x31 x89)) (x135 (= x31 x102)) (x35 (= x93 x59)) (x76 (= x27 x78)) (x146 (= x18 x48)) (x152 (= x93 x78)) (x107 (= x134 x31)) (x117 (= x27 x39)) (x144 (= x18 x27)) (x41 (= x104 x31)) (x99 (= x48 x142)) (x30 (= x97 x56)) (x130 (= x120 x93)) (x1 (= x66 x48)) (x156 (= x97 x32)) (x23 (= x31 x66)) (x22 (= x18 x97)) (x62 (= x39 x31)) (x96 (= x97 x137)) (x75 (= x66 x97)) (x133 (= x66 x93)) (x150 (= x134 x97)) (x92 (= x142 x31)) (x46 (= x122 x97)) (x26 (= x93 x103)) (x131 (= x27 x94)) (x11 (= x95 x48)) (x129 (= x137 x31)) (x24 (= x48 x7)) (x71 (= x13 x97)) (x118 (= x27 x104)) (x123 (= x29 x97)) (x128 (= x32 x48)) (x109 (= x89 x97)) (x67 (= x48 x13)) (x54 (= x31 x103)) (x14 (= x93 x8)) (x63 (= x120 x27)) (x21 (= x27 x122)) (x70 (= x31 x5)) (x132 (= x95 x31)) (x147 (= x102 x97)) (x84 (= x5 x27)) (x82 (= x5 x93)) (x53 (= x93 x89)) (x91 (= x103 x27)) (x64 (= x31 x7)) (x42 (= x8 x31)) (x139 (= x29 x27)) (x73 (= x115 x27)) (x4 (= x115 x93)) (x119 (= x29 x31)) (x153 (= x93 x95)) (x74 (= x93 x104)) (x98 (= x31 x18)) (x19 (= x134 x93)) (x154 (= x97 x104)) (x140 (= x31 x13)) (x65 (= x59 x31)) (x90 (= x56 x93)) (x149 (= x48 x115)) (x111 (= x134 x48)) (x83 (= x27 x13)) (x100 (= x31 x122)) (x138 (= x27 x102)) (x155 (= x97 x59)) (x114 (= x31 x120)) (x148 (= x78 x97))) (or (or (or (and (and (or x140 (not x6)) (and (and (and (or (not x112) x71) (or (not x81) x52)) (or (not x83) x83)) (or (not x139) x67))) (and (and (and (and (or x149 (not x72)) (and (and (or x58 (not x2)) (or x4 (not x63))) (or x73 (not x73)))) (or x125 (not x28))) (and (and (or x129 (not x21)) (and (and (and (or (not x76) x3) (or (not x131) x96)) (or (not x16) x16)) (or x77 (not x44)))) (and (or x135 (not x84)) (and (or x105 (not x91)) (and (and (or (not x144) x147) (or (not x117) x141)) (or x138 (not x138))))))) (and (or x57 (not x85)) (and (and (and (or x109 (not x118)) (or x53 (not x60))) (or (not x143) x143)) (or (not x108) x88))))) (or (and (and (and (and (and (and (and (or x131 (not x96)) (and (or (not x148) x86) (or (not x50) x50))) (or (not x156) x45)) (or x159 (not x46))) (and (and (or x146 (not x127)) (and (and (or (not x22) x22) (or x106 (not x68))) (or (not x147) x144))) (or (not x145) x98))) (and (and (or x158 (not x30)) (and (or (not x58) x2) (and (or (not x49) x38) (or (not x110) x110)))) (or x61 (not x150)))) (and (or x41 (not x17)) (and (or (not x75) x9) (and (and (or (not x154) x154) (or (not x87) x74)) (or x118 (not x109)))))) (and (or x92 (not x40)) (and (and (or x112 (not x71)) (and (or (not x33) x33) (or x157 (not x155)))) (or (not x123) x99)))) (and (and (and (and (and (and (or (not x74) x87) (or x14 (not x14))) (or (not x53) x60)) (or (not x133) x116)) (or (not x153) x42)) (and (and (and (or x25 (not x126)) (and (or x20 (not x37)) (and (and (or (not x86) x148) (or x152 (not x152))) (or x76 (not x3))))) (and (and (or (not x26) x43) (and (or (not x141) x117) (and (or x55 (not x55)) (or x68 (not x106))))) (or (not x82) x62))) (and (and (and (and (or (not x130) x130) (or x49 (not x38))) (or (not x4) x63)) (or x113 (not x90))) (or x114 (not x19))))) (and (and (and (and (or (not x157) x155) (or x35 (not x35))) (or x81 (not x52))) (or (not x136) x51)) (or x65 (not x124)))))) (and (and (and (and (and (and (or (not x9) x75) (or (not x116) x133)) (or x108 (not x88))) (or x1 (not x1))) (or x23 (not x11))) (and (and (and (or (not x69) x69) (and (and (or x30 (not x158)) (or x90 (not x113))) (or (not x149) x72))) (or x79 (not x111))) (and (and (and (and (and (or x127 (not x146)) (or x26 (not x43))) (or (not x105) x91)) (or (not x15) x15)) (or (not x10) x54)) (and (or (not x121) x151) (and (or x128 (not x128)) (and (or (not x77) x44) (and (or x156 (not x45)) (or x37 (not x20))))))))) (and (or x119 (not x24)) (and (and (or (not x67) x139) (and (or (not x99) x123) (or (not x51) x136))) (or (not x47) x47))))) (and (and (and (or (not x119) x24) (and (and (or x124 (not x65)) (or x40 (not x92))) (or (not x140) x6))) (or (not x64) x64)) (and (and (or x132 (not x132)) (and (and (and (or (not x42) x153) (or (not x41) x17)) (or (not x57) x85)) (or (not x23) x11))) (and (and (and (and (or (not x151) x121) (and (and (or (not x25) x126) (or (not x159) x46)) (or (not x129) x21))) (or (not x100) x100)) (and (and (and (and (or (not x98) x145) (or x82 (not x62))) (or x84 (not x135))) (or x10 (not x54))) (or x70 (not x70)))) (and (and (or (not x79) x111) (and (or (not x125) x28) (and (or x150 (not x61)) (or (not x114) x19)))) (or x107 (not x107))))))))))
(assert (let ((x78 (x36 x48 x48)) (x130 (x36 x31 x31)) (x152 (x36 x27 x27)) (x39 (x36 x97 x97)) (x55 (x36 x93 x93))) (or (and (not (= x31 x130)) (and (not (= x78 x31)) (and (and (not (= x55 x31)) (not (= x31 x39))) (not (= x31 x152))))) (or (or (and (not (= x27 x130)) (and (and (and (not (= x27 x55)) (not (= x39 x27))) (not (= x27 x152))) (not (= x27 x78)))) (or (and (not (= x130 x97)) (and (and (not (= x152 x97)) (and (not (= x39 x97)) (not (= x97 x55)))) (not (= x78 x97)))) (and (and (and (not (= x93 x152)) (and (not (= x93 x55)) (not (= x39 x93)))) (not (= x78 x93))) (not (= x93 x130))))) (and (not (= x48 x130)) (and (not (= x78 x48)) (and (not (= x48 x152)) (and (not (= x55 x48)) (not (= x48 x39))))))))))
(assert (and (or (or (= x48 (x36 (x36 x31 x48) x31)) (or (= x27 (x36 (x36 x31 x27) x31)) (or (= x93 (x36 (x36 x31 x93) x31)) (= (x36 (x36 x31 x97) x31) x97)))) (= x31 (x36 (x36 x31 x31) x31))) (and (or (or (= x48 (x36 (x36 x48 x48) x48)) (or (= x27 (x36 (x36 x48 x27) x48)) (or (= x93 (x36 (x36 x48 x93) x48)) (= (x36 (x36 x48 x97) x48) x97)))) (= x31 (x36 (x36 x48 x31) x48))) (and (or (= x31 (x36 (x36 x27 x31) x27)) (or (or (or (= x93 (x36 (x36 x27 x93) x27)) (= x97 (x36 (x36 x27 x97) x27))) (= x27 (x36 (x36 x27 x27) x27))) (= x48 (x36 (x36 x27 x48) x27)))) (and (or (or (or (or (= (x36 (x36 x93 x93) x93) x93) (= (x36 (x36 x93 x97) x93) x97)) (= x27 (x36 (x36 x93 x27) x93))) (= (x36 (x36 x93 x48) x93) x48)) (= x31 (x36 (x36 x93 x31) x93))) (or (= (x36 (x36 x97 x31) x97) x31) (or (or (= x27 (x36 (x36 x97 x27) x97)) (or (= x93 (x36 (x36 x97 x93) x97)) (= (x36 (x36 x97 x97) x97) x97))) (= (x36 (x36 x97 x48) x97) x48))))))))
(check-sat)
(exit)
